c turning on binary mode checking
c parsing input formula with 202048 variables and 780980 clauses
c finished parsing, read 34765 bytes from proof file
c detected empty clause; start verification via backward checking
c 799 of 780980 clauses in core                            
c 52 of 6495 lemmas in core using 7716 resolution steps
c 0 RAT lemmas in core; 7 redundant literals in core lemmas
s VERIFIED
c verification time: 0.711 seconds
